(set-logic QF_UF)
(declare-fun A0 () Bool)
(declare-fun A1 () Bool)
(declare-fun A2 () Bool)
(declare-fun A3 () Bool)
(declare-fun A4 () Bool)
(declare-fun A5 () Bool)
(declare-fun A6 () Bool)
(declare-fun A7 () Bool)
(declare-fun A8 () Bool)
(declare-fun A9 () Bool)
(declare-fun A10 () Bool)
(declare-fun A12 () Bool)
(declare-fun A13 () Bool)
(declare-fun A14 () Bool)
(declare-fun A15 () Bool)
(declare-fun A16 () Bool)
(declare-fun A17 () Bool)
(declare-fun A18 () Bool)
(declare-fun A19 () Bool)
(declare-fun A20 () Bool)
(declare-fun A21 () Bool)
(declare-fun A22 () Bool)
(declare-fun A23 () Bool)
(declare-fun A24 () Bool)
(assert (let ((.def_0 (or A13 A5))) (let ((.def_1 (not .def_0))) (let ((.def_2 (not A16))) (let ((.def_3 (and A12 .def_2))) (let ((.def_4 (not .def_3))) (let ((.def_5 (or .def_4 .def_1))) (let ((.def_6 (or A22 .def_2))) (let ((.def_7 (not .def_6))) (let ((.def_8 (not A0))) (let ((.def_9 (or .def_8 A8))) (let ((.def_10 (or .def_9 .def_7))) (let ((.def_11 (not .def_10))) (let ((.def_12 (and .def_11 .def_5))) (let ((.def_13 (not A15))) (let ((.def_14 (not A4))) (let ((.def_15 (and .def_14 .def_13))) (let ((.def_16 (and A18 .def_14))) (let ((.def_17 (and .def_16 .def_15))) (let ((.def_18 (not .def_17))) (let ((.def_19 (not A13))) (let ((.def_20 (and .def_19 A10))) (let ((.def_21 (not .def_20))) (let ((.def_22 (or A9 .def_2))) (let ((.def_23 (= .def_22 .def_21))) (let ((.def_24 (not .def_23))) (let ((.def_25 (or .def_24 .def_18))) (let ((.def_26 (or .def_25 .def_12))) (let ((.def_27 (and A4 A18))) (let ((.def_28 (not .def_27))) (let ((.def_29 (and .def_2 A1))) (let ((.def_30 (not .def_29))) (let ((.def_31 (and .def_30 .def_28))) (let ((.def_32 (not A5))) (let ((.def_33 (and .def_32 A5))) (let ((.def_34 (not .def_33))) (let ((.def_35 (or A8 A8))) (let ((.def_36 (and .def_35 .def_34))) (let ((.def_37 (or .def_36 .def_31))) (let ((.def_38 (and A3 .def_8))) (let ((.def_39 (not .def_38))) (let ((.def_40 (not A12))) (let ((.def_41 (and .def_40 A20))) (let ((.def_42 (not .def_41))) (let ((.def_43 (and .def_42 .def_39))) (let ((.def_44 (and A0 .def_8))) (let ((.def_45 (not A19))) (let ((.def_46 (or .def_45 A7))) (let ((.def_47 (and .def_46 .def_44))) (let ((.def_48 (= .def_47 .def_43))) (let ((.def_49 (not .def_48))) (let ((.def_50 (and .def_49 .def_37))) (let ((.def_51 (and .def_50 .def_26))) (let ((.def_52 (and .def_2 A14))) (let ((.def_53 (not A9))) (let ((.def_54 (and .def_8 .def_53))) (let ((.def_55 (or .def_54 .def_52))) (let ((.def_56 (not .def_55))) (let ((.def_57 (not A17))) (let ((.def_58 (and .def_57 A12))) (let ((.def_59 (not .def_58))) (let ((.def_60 (not A22))) (let ((.def_61 (or .def_60 A10))) (let ((.def_62 (not .def_61))) (let ((.def_63 (= .def_62 .def_59))) (let ((.def_64 (and .def_63 .def_56))) (let ((.def_65 (or A22 A7))) (let ((.def_66 (not A2))) (let ((.def_67 (and .def_66 A14))) (let ((.def_68 (or .def_67 .def_65))) (let ((.def_69 (not A24))) (let ((.def_70 (and A12 .def_69))) (let ((.def_71 (not A6))) (let ((.def_72 (not A14))) (let ((.def_73 (or .def_72 .def_71))) (let ((.def_74 (not .def_73))) (let ((.def_75 (or .def_74 .def_70))) (let ((.def_76 (and .def_75 .def_68))) (let ((.def_77 (or .def_76 .def_64))) (let ((.def_78 (not .def_77))) (let ((.def_79 (or .def_71 A6))) (let ((.def_80 (not .def_79))) (let ((.def_81 (or A24 .def_2))) (let ((.def_82 (not .def_81))) (let ((.def_83 (and .def_82 .def_80))) (let ((.def_84 (not A3))) (let ((.def_85 (or A21 .def_84))) (let ((.def_86 (not A10))) (let ((.def_87 (or .def_86 .def_84))) (let ((.def_88 (or .def_87 .def_85))) (let ((.def_89 (not .def_88))) (let ((.def_90 (or .def_89 .def_83))) (let ((.def_91 (not .def_90))) (let ((.def_92 (not A18))) (let ((.def_93 (or A15 .def_92))) (let ((.def_94 (not .def_93))) (let ((.def_95 (or A23 A19))) (let ((.def_96 (not .def_95))) (let ((.def_97 (or .def_96 .def_94))) (let ((.def_98 (not A8))) (let ((.def_99 (or A23 .def_98))) (let ((.def_100 (and A17 A1))) (let ((.def_101 (or .def_100 .def_99))) (let ((.def_102 (not .def_101))) (let ((.def_103 (and .def_102 .def_97))) (let ((.def_104 (not .def_103))) (let ((.def_105 (and .def_104 .def_91))) (let ((.def_106 (or .def_105 .def_78))) (let ((.def_107 (not .def_106))) (let ((.def_108 (and .def_107 .def_51))) (let ((.def_109 (not .def_108))) .def_109)))))))))))))))))))))))))))))))))))))))))))))))))))))))))))))))))))))))))))))))))))))))))))))))))))))))))))))))
(check-sat)
